p cnf 45 375
4 7 11 16 22 29 37 46 56 0
8 12 17 23 30 38 47 57 68 0
13 18 24 31 39 48 58 69 81 0
19 25 32 40 49 59 70 82 95 0
26 33 41 50 60 71 83 96 110 0
-4 -8 0
-7 -12 0
-11 -17 0
-16 -23 0
-22 -30 0
-29 -38 0
-37 -47 0
-46 -57 0
-56 -68 0
-4 -13 0
-7 -18 0
-11 -24 0
-16 -31 0
-22 -39 0
-29 -48 0
-37 -58 0
-46 -69 0
-56 -81 0
-4 -19 0
-7 -25 0
-11 -32 0
-16 -40 0
-22 -49 0
-29 -59 0
-37 -70 0
-46 -82 0
-56 -95 0
-4 -26 0
-7 -33 0
-11 -41 0
-16 -50 0
-22 -60 0
-29 -71 0
-37 -83 0
-46 -96 0
-56 -110 0
-8 -13 0
-12 -18 0
-17 -24 0
-23 -31 0
-30 -39 0
-38 -48 0
-47 -58 0
-57 -69 0
-68 -81 0
-8 -19 0
-12 -25 0
-17 -32 0
-23 -40 0
-30 -49 0
-38 -59 0
-47 -70 0
-57 -82 0
-68 -95 0
-8 -26 0
-12 -33 0
-17 -41 0
-23 -50 0
-30 -60 0
-38 -71 0
-47 -83 0
-57 -96 0
-68 -110 0
-13 -19 0
-18 -25 0
-24 -32 0
-31 -40 0
-39 -49 0
-48 -59 0
-58 -70 0
-69 -82 0
-81 -95 0
-13 -26 0
-18 -33 0
-24 -41 0
-31 -50 0
-39 -60 0
-48 -71 0
-58 -83 0
-69 -96 0
-81 -110 0
-19 -26 0
-25 -33 0
-32 -41 0
-40 -50 0
-49 -60 0
-59 -71 0
-70 -83 0
-82 -96 0
-95 -110 0
-4 -12 0
-4 -23 0
-4 -30 0
-4 -38 0
-4 -57 0
-4 -68 0
-7 -17 0
-7 -38 0
-7 -47 0
-11 -38 0
-11 -47 0
-22 -38 0
-37 -57 0
-37 -68 0
-4 -18 0
-4 -31 0
-4 -39 0
-4 -48 0
-4 -69 0
-4 -81 0
-7 -24 0
-7 -48 0
-7 -58 0
-11 -48 0
-11 -58 0
-22 -48 0
-37 -69 0
-37 -81 0
-4 -25 0
-4 -40 0
-4 -49 0
-4 -59 0
-4 -82 0
-4 -95 0
-7 -32 0
-7 -59 0
-7 -70 0
-11 -59 0
-11 -70 0
-22 -59 0
-37 -82 0
-37 -95 0
-4 -33 0
-4 -50 0
-4 -60 0
-4 -71 0
-4 -96 0
-4 -110 0
-7 -41 0
-7 -71 0
-7 -83 0
-11 -71 0
-11 -83 0
-22 -71 0
-37 -96 0
-37 -110 0
-8 -7 0
-8 -16 0
-8 -22 0
-8 -29 0
-8 -46 0
-8 -56 0
-12 -11 0
-12 -29 0
-12 -37 0
-17 -29 0
-17 -37 0
-30 -29 0
-47 -46 0
-47 -56 0
-8 -18 0
-8 -31 0
-8 -39 0
-8 -48 0
-8 -69 0
-8 -81 0
-12 -24 0
-12 -48 0
-12 -58 0
-17 -48 0
-17 -58 0
-30 -48 0
-47 -69 0
-47 -81 0
-8 -25 0
-8 -40 0
-8 -49 0
-8 -59 0
-8 -82 0
-8 -95 0
-12 -32 0
-12 -59 0
-12 -70 0
-17 -59 0
-17 -70 0
-30 -59 0
-47 -82 0
-47 -95 0
-8 -33 0
-8 -50 0
-8 -60 0
-8 -71 0
-8 -96 0
-8 -110 0
-12 -41 0
-12 -71 0
-12 -83 0
-17 -71 0
-17 -83 0
-30 -71 0
-47 -96 0
-47 -110 0
-13 -7 0
-13 -16 0
-13 -22 0
-13 -29 0
-13 -46 0
-13 -56 0
-18 -11 0
-18 -29 0
-18 -37 0
-24 -29 0
-24 -37 0
-39 -29 0
-58 -46 0
-58 -56 0
-13 -12 0
-13 -23 0
-13 -30 0
-13 -38 0
-13 -57 0
-13 -68 0
-18 -17 0
-18 -38 0
-18 -47 0
-24 -38 0
-24 -47 0
-39 -38 0
-58 -57 0
-58 -68 0
-13 -25 0
-13 -40 0
-13 -49 0
-13 -59 0
-13 -82 0
-13 -95 0
-18 -32 0
-18 -59 0
-18 -70 0
-24 -59 0
-24 -70 0
-39 -59 0
-58 -82 0
-58 -95 0
-13 -33 0
-13 -50 0
-13 -60 0
-13 -71 0
-13 -96 0
-13 -110 0
-18 -41 0
-18 -71 0
-18 -83 0
-24 -71 0
-24 -83 0
-39 -71 0
-58 -96 0
-58 -110 0
-19 -7 0
-19 -16 0
-19 -22 0
-19 -29 0
-19 -46 0
-19 -56 0
-25 -11 0
-25 -29 0
-25 -37 0
-32 -29 0
-32 -37 0
-49 -29 0
-70 -46 0
-70 -56 0
-19 -12 0
-19 -23 0
-19 -30 0
-19 -38 0
-19 -57 0
-19 -68 0
-25 -17 0
-25 -38 0
-25 -47 0
-32 -38 0
-32 -47 0
-49 -38 0
-70 -57 0
-70 -68 0
-19 -18 0
-19 -31 0
-19 -39 0
-19 -48 0
-19 -69 0
-19 -81 0
-25 -24 0
-25 -48 0
-25 -58 0
-32 -48 0
-32 -58 0
-49 -48 0
-70 -69 0
-70 -81 0
-19 -33 0
-19 -50 0
-19 -60 0
-19 -71 0
-19 -96 0
-19 -110 0
-25 -41 0
-25 -71 0
-25 -83 0
-32 -71 0
-32 -83 0
-49 -71 0
-70 -96 0
-70 -110 0
-26 -7 0
-26 -16 0
-26 -22 0
-26 -29 0
-26 -46 0
-26 -56 0
-33 -11 0
-33 -29 0
-33 -37 0
-41 -29 0
-41 -37 0
-60 -29 0
-83 -46 0
-83 -56 0
-26 -12 0
-26 -23 0
-26 -30 0
-26 -38 0
-26 -57 0
-26 -68 0
-33 -17 0
-33 -38 0
-33 -47 0
-41 -38 0
-41 -47 0
-60 -38 0
-83 -57 0
-83 -68 0
-26 -18 0
-26 -31 0
-26 -39 0
-26 -48 0
-26 -69 0
-26 -81 0
-33 -24 0
-33 -48 0
-33 -58 0
-41 -48 0
-41 -58 0
-60 -48 0
-83 -69 0
-83 -81 0
-26 -25 0
-26 -40 0
-26 -49 0
-26 -59 0
-26 -82 0
-26 -95 0
-33 -32 0
-33 -59 0
-33 -70 0
-41 -59 0
-41 -70 0
-60 -59 0
-83 -82 0
-83 -95 0
